p cnf 7230 16
-1672 -3484 -3542 4060 0
1672 -4061 0
3484 -4061 0
-4063 4065 0
4064 -4065 0
4062 -4064 0
-3492 4063 0
3492 -4062 0
-4060 4061 0
3542 -4061 0
-4058 4059 0
4058 -4059 0
3544 -4067 0
3486 -4067 0
3472 -4067 0
1676 -4067 0
